p cnf 1038 2439
a 1 2 3 4 5 6 7 8 25 26 27 28 29 30 31 32 33 34 35 36 37 38 39 40 41 42 43 44 45 46 47 48 49 50 51 52 53 54 55 56 57 58 59 60 61 62 63 64 65 66 67 68 69 70 71 72 73 74 75 76 77 78 79 80 81 82 83 84 85 86 87 88 89 90 0
e 9 10 11 12 13 14 15 16 17 18 19 20 21 22 23 24 91 92 93 94 95 96 97 98 99 100 101 102 103 104 105 106 107 108 109 110 111 112 113 114 115 116 117 118 119 120 121 122 123 124 125 126 127 128 129 130 131 132 133 134 135 136 137 138 139 140 141 142 143 144 145 146 147 148 149 150 151 152 153 154 155 156 157 158 159 160 161 162 163 164 165 166 167 168 169 170 171 172 173 174 175 176 177 178 179 180 181 182 183 184 185 186 187 188 189 190 191 192 193 194 195 196 197 198 199 200 201 202 203 204 205 206 207 208 209 210 211 212 213 214 215 216 217 218 219 220 221 222 223 224 225 226 227 228 229 230 231 232 233 234 235 236 237 238 239 240 241 242 243 244 245 246 247 248 249 250 251 252 253 254 255 256 257 258 259 260 261 262 263 264 265 266 267 268 269 270 271 272 273 274 275 276 277 278 279 280 281 282 283 284 285 286 287 288 289 290 291 292 293 294 295 296 297 298 299 300 301 302 303 304 305 306 307 308 309 310 311 312 313 314 315 316 317 318 319 320 321 322 323 324 325 326 327 328 329 330 331 332 333 334 335 336 337 338 339 340 341 342 343 344 345 346 347 348 349 350 351 352 353 354 355 356 357 358 359 360 361 362 363 364 365 366 367 368 369 370 371 372 373 374 375 376 377 378 379 380 381 382 383 384 385 386 387 388 389 390 391 392 393 394 395 396 397 398 399 400 401 402 403 404 405 406 407 408 409 410 411 412 413 414 415 416 417 418 419 420 421 422 423 424 425 426 427 428 429 430 431 432 433 434 435 436 437 438 439 440 441 442 443 444 445 446 447 448 449 450 451 452 453 454 455 456 457 458 459 460 461 462 463 464 465 466 467 468 469 470 471 472 473 474 475 476 477 478 479 480 481 482 483 484 485 486 487 488 489 490 491 492 493 494 495 496 497 498 499 500 501 502 503 504 505 506 507 508 509 510 511 512 513 514 515 516 517 518 519 520 521 522 523 524 525 526 527 528 529 530 531 532 533 534 535 536 537 538 539 540 541 542 543 544 545 546 547 548 549 550 551 552 553 554 555 556 557 558 559 560 561 562 563 564 565 566 567 568 569 570 571 572 573 574 575 576 577 578 579 580 581 582 583 584 585 586 587 588 589 590 591 592 593 594 595 596 597 598 599 600 601 602 603 604 605 606 607 608 609 610 611 612 613 614 615 616 617 618 619 620 621 622 623 624 625 626 627 628 629 630 631 632 633 634 635 636 637 638 639 640 641 642 643 644 645 646 647 648 649 650 651 652 653 654 655 656 657 658 659 660 661 662 663 664 665 666 667 668 669 670 671 672 673 674 675 676 677 678 679 680 681 682 683 684 685 686 687 688 689 690 691 692 693 694 695 696 697 698 699 700 701 702 703 704 705 706 707 708 709 710 711 712 713 714 715 716 717 718 719 720 721 722 723 724 725 726 727 728 729 730 731 732 733 734 735 736 737 738 739 740 741 742 743 744 745 746 747 748 749 750 751 752 753 754 755 756 757 758 759 760 761 762 763 764 765 766 767 768 769 770 771 772 773 774 775 776 777 778 779 780 781 782 783 784 785 786 787 788 789 790 791 792 793 794 795 796 797 798 799 800 801 802 803 804 805 806 807 808 809 810 811 812 813 814 815 816 817 818 819 820 821 822 823 824 825 826 827 828 829 830 831 832 833 834 835 836 837 838 839 840 841 842 843 844 845 846 847 848 849 850 851 852 853 854 855 856 857 858 859 860 861 862 863 864 865 866 867 868 869 870 871 872 873 874 875 876 877 878 879 880 881 882 883 884 885 886 887 888 889 890 891 892 893 894 895 896 897 898 899 900 901 902 903 904 905 906 907 908 909 910 911 912 913 914 915 916 917 918 919 920 921 922 923 924 925 926 927 928 929 930 931 932 933 934 935 936 937 938 939 940 941 942 943 944 945 946 947 948 949 950 951 952 953 954 955 956 957 958 959 960 961 962 963 964 965 966 967 968 969 970 971 972 973 974 975 976 977 978 979 980 981 982 983 984 985 986 987 988 989 990 991 992 993 994 995 996 997 998 999 1000 1001 1002 1003 1004 1005 1006 1007 1008 1009 1010 1011 1012 1013 1014 1015 1016 1017 1018 1019 1020 1021 1022 1023 1024 1025 1026 1027 1028 1029 1030 1031 1032 1033 1034 1035 1036 1037 1038 0
-1038 0
1038 -698 0
1038 -747 0
1038 -808 0
1038 -831 0
1038 -842 0
1038 -851 0
1038 -860 0
1038 -869 0
1038 -878 0
1038 -887 0
1038 -930 0
1038 -971 0
1038 -1010 0
1038 -1019 0
1038 -1028 0
1038 -1037 0
7 5 6 8 3 1 -697 -696 -1036 1037 0
1036 -1032 0
1036 -1035 0
9 24 21 16 -693 -692 -691 -690 -689 -688 -659 -658 -657 -683 -682 -1034 -1033 1035 0
1034 -804 0
1034 -665 0
1033 -823 0
1033 -837 0
-392 -1031 1032 0
1031 -1029 0
1031 -1030 0
1031 -379 0
1031 -380 0
1031 -354 0
1031 -355 0
1031 -356 0
-362 -774 1030 0
-832 -812 1029 0
7 5 4 6 3 1 -697 -696 -1027 1028 0
1027 -1023 0
1027 -1026 0
9 24 21 16 -693 -692 -691 -690 -689 -688 -730 -729 -728 -822 -821 -1025 -1024 1026 0
1025 -827 0
1025 -684 0
1024 -736 0
1024 -804 0
-392 -1022 1023 0
1022 -1020 0
1022 -1021 0
1022 -810 0
1022 -811 0
1022 -704 0
1022 -705 0
1022 -706 0
-381 -816 1021 0
-774 -712 1020 0
7 5 4 8 3 1 -697 -696 -1018 1019 0
1018 -1014 0
1018 -1017 0
9 24 21 16 -693 -692 -691 -690 -689 -688 -575 -803 -574 -557 -802 -1016 -1015 1017 0
1016 -799 0
1016 -684 0
1015 -597 0
1015 -823 0
-392 -1013 1014 0
1013 -1011 0
1013 -1012 0
1013 -772 0
1013 -254 0
1013 -271 0
1013 -773 0
1013 -272 0
-381 -769 1012 0
-812 -294 1011 0
7 4 6 8 3 1 -697 -696 -1009 1010 0
1009 -990 0
1009 -1008 0
9 24 21 16 -693 -692 -691 -690 -689 -688 -951 -805 -910 -1007 1008 0
1007 -1006 0
1007 -450 0
1007 -451 0
1007 -452 0
1007 -453 0
-1005 -1000 -995 1006 0
1005 -412 0
1005 -442 0
1005 -413 0
1005 -1001 0
1005 -1002 0
1005 -1003 0
1005 -1004 0
1005 -447 0
1005 -81 0
1005 -77 0
1005 -63 0
1005 -62 0
1005 -61 0
1005 -60 0
1005 -57 0
-21 -68 1004 0
-21 -30 1003 0
-27 21 1002 0
21 -65 1001 0
1000 -403 0
1000 -432 0
1000 -404 0
1000 -996 0
1000 -997 0
1000 -998 0
1000 -436 0
1000 -999 0
1000 -80 0
1000 -74 0
1000 -50 0
1000 -49 0
1000 -48 0
1000 -47 0
1000 -44 0
-21 -55 999 0
-21 -28 998 0
-26 21 997 0
21 -52 996 0
995 -394 0
995 -395 0
995 -423 0
995 -424 0
995 -991 0
995 -992 0
995 -993 0
995 -994 0
995 -79 0
995 -71 0
995 -37 0
995 -36 0
995 -35 0
995 -34 0
995 -31 0
-21 -29 994 0
-25 21 993 0
-21 -42 992 0
-39 21 991 0
-392 -989 990 0
989 -988 0
989 -889 0
989 -775 0
989 -931 0
-150 -149 -148 -147 -987 988 0
987 -976 0
987 -981 0
987 -986 0
61 81 63 62 60 57 77 -144 -985 -984 -983 -982 -110 -139 -109 986 0
985 68 0
985 21 0
984 30 0
984 21 0
983 27 0
983 -21 0
982 65 0
982 -21 0
50 49 48 74 47 80 44 -980 -133 -979 -978 -977 -101 -129 -100 981 0
980 55 0
980 21 0
979 28 0
979 21 0
978 26 0
978 -21 0
977 52 0
977 -21 0
31 35 37 36 34 79 71 -975 -974 -973 -972 -121 -120 -92 -91 976 0
975 29 0
975 21 0
974 25 0
974 -21 0
973 42 0
973 21 0
972 39 0
972 -21 0
7 5 6 8 3 2 -697 -696 -970 971 0
970 -950 0
970 -969 0
9 24 21 16 -693 -692 -691 -968 -690 -689 -688 -951 -800 -909 969 0
968 -967 0
968 -450 0
968 -451 0
968 -452 0
968 -453 0
-966 -961 -956 967 0
966 -962 0
966 -963 0
966 -964 0
966 -965 0
966 -536 0
966 -537 0
966 -417 0
966 -90 0
966 -87 0
966 -418 0
966 -81 0
966 -77 0
966 -63 0
966 -62 0
966 -57 0
-24 -68 965 0
-24 -30 964 0
24 -65 963 0
-27 24 962 0
961 -957 0
961 -958 0
961 -959 0
961 -960 0
961 -529 0
961 -408 0
961 -409 0
961 -89 0
961 -530 0
961 -86 0
961 -80 0
961 -74 0
961 -50 0
961 -49 0
961 -44 0
-24 -55 960 0
-24 -28 959 0
24 -52 958 0
-26 24 957 0
956 -952 0
956 -953 0
956 -954 0
956 -522 0
956 -399 0
956 -400 0
956 -523 0
956 -88 0
956 -955 0
956 -85 0
956 -79 0
956 -71 0
956 -37 0
956 -36 0
956 -31 0
-25 24 955 0
-24 -42 954 0
-24 -29 953 0
-39 24 952 0
951 -741 0
951 -684 0
-392 -949 950 0
949 -888 0
949 -770 0
949 -931 0
949 -948 0
-150 -149 -148 -147 -947 948 0
947 -936 0
947 -941 0
947 -946 0
81 63 62 57 77 -115 90 87 -114 -234 -233 -945 -944 -943 -942 946 0
945 68 0
945 24 0
944 30 0
944 24 0
943 65 0
943 -24 0
942 27 0
942 -24 0
50 49 74 86 80 44 -227 89 -106 -105 -226 -940 -939 -938 -937 941 0
940 55 0
940 24 0
939 28 0
939 24 0
938 52 0
938 -24 0
937 26 0
937 -24 0
31 37 36 79 71 85 -935 88 -220 -97 -96 -219 -934 -933 -932 936 0
935 25 0
935 -24 0
934 42 0
934 24 0
933 29 0
933 24 0
932 39 0
932 -24 0
-381 -717 931 0
5 4 6 3 2 1 -697 -696 -929 930 0
929 -908 0
929 -928 0
9 24 21 16 -693 -692 -691 -927 -690 -689 -688 -910 -909 -795 928 0
927 -926 0
927 -450 0
927 -451 0
927 -452 0
927 -453 0
-925 -920 -915 926 0
925 -921 0
925 -471 0
925 -472 0
925 -492 0
925 -922 0
925 -495 0
925 -923 0
925 -63 0
925 -62 0
925 -61 0
925 -60 0
925 -59 0
925 -58 0
925 -57 0
925 -924 0
-9 -30 924 0
-9 -68 923 0
-27 9 922 0
9 -65 921 0
920 -916 0
920 -464 0
920 -485 0
920 -917 0
920 -918 0
920 -466 0
920 -489 0
920 -50 0
920 -49 0
920 -48 0
920 -47 0
920 -46 0
920 -45 0
920 -44 0
920 -919 0
-9 -28 919 0
-26 9 918 0
-9 -55 917 0
9 -52 916 0
915 -911 0
915 -458 0
915 -459 0
915 -477 0
915 -912 0
915 -913 0
915 -481 0
915 -914 0
915 -37 0
915 -36 0
915 -35 0
915 -34 0
915 -33 0
915 -32 0
915 -31 0
-25 9 914 0
-9 -29 913 0
-39 9 912 0
-9 -42 911 0
910 -680 0
910 -823 0
909 -827 0
909 -837 0
-392 -907 908 0
907 -765 0
907 -888 0
907 -889 0
907 -906 0
-150 -149 -148 -147 -905 906 0
905 -894 0
905 -899 0
905 -904 0
-903 61 63 62 60 59 58 57 -902 -192 -901 -189 -169 -168 -900 904 0
903 30 0
903 9 0
902 68 0
902 9 0
901 27 0
901 -9 0
900 65 0
900 -9 0
-898 50 49 48 46 45 47 44 -186 -163 -897 -896 -182 -161 -895 899 0
898 28 0
898 9 0
897 26 0
897 -9 0
896 55 0
896 9 0
895 52 0
895 -9 0
32 31 33 35 37 36 34 -893 -178 -892 -891 -174 -156 -155 -890 894 0
893 25 0
893 -9 0
892 29 0
892 9 0
891 39 0
891 -9 0
890 42 0
890 9 0
-812 -377 889 0
-832 -816 888 0
5 4 8 3 2 1 -697 -696 -886 887 0
886 -882 0
886 -885 0
9 24 21 16 -693 -692 -691 -690 -689 -688 -596 -595 -594 -593 -540 -884 -883 885 0
884 -799 0
884 -837 0
883 -680 0
883 -804 0
-392 -881 882 0
881 -879 0
881 -880 0
881 -237 0
881 -290 0
881 -291 0
881 -292 0
881 -293 0
-832 -769 880 0
-774 -377 879 0
7 4 6 8 3 2 -697 -696 -877 878 0
877 -873 0
877 -876 0
9 24 21 16 -693 -692 -691 -690 -689 -688 -674 -673 -672 -740 -739 -875 -874 876 0
875 -801 0
875 -799 0
874 -680 0
874 -827 0
-392 -872 873 0
872 -870 0
872 -871 0
872 -715 0
872 -716 0
872 -369 0
872 -370 0
872 -371 0
-769 -771 871 0
-816 -377 870 0
7 5 4 6 3 2 -697 -696 -868 869 0
868 -864 0
868 -867 0
9 24 21 16 -693 -692 -691 -690 -689 -688 -725 -724 -723 -826 -825 -866 -865 867 0
866 -741 0
866 -823 0
865 -799 0
865 -736 0
-392 -863 864 0
863 -861 0
863 -862 0
863 -814 0
863 -815 0
863 -699 0
863 -700 0
863 -701 0
-812 -717 862 0
-712 -769 861 0
7 5 4 8 3 2 -697 -696 -859 860 0
859 -855 0
859 -858 0
9 24 21 16 -693 -692 -691 -690 -689 -688 -516 -499 -454 -798 -796 -857 -856 858 0
857 -741 0
857 -804 0
856 -597 0
856 -827 0
-392 -854 855 0
854 -852 0
854 -853 0
854 -766 0
854 -768 0
854 -151 0
854 -196 0
854 -213 0
-774 -717 853 0
-816 -294 852 0
4 6 8 3 2 1 -697 -696 -850 851 0
850 -846 0
850 -849 0
9 24 21 16 -693 -692 -691 -690 -689 -688 -679 -678 -677 -676 -671 -848 -847 849 0
848 -741 0
848 -837 0
847 -801 0
847 -597 0
-392 -845 846 0
845 -843 0
845 -844 0
845 -368 0
845 -373 0
845 -374 0
845 -375 0
845 -376 0
-832 -717 844 0
-294 -771 843 0
7 5 6 8 2 1 -697 -696 -841 842 0
841 -836 0
841 -840 0
9 24 21 16 -693 -692 -691 -690 -689 -688 -664 -663 -662 -661 -640 -839 -838 840 0
839 -801 0
839 -684 0
838 -736 0
838 -837 0
-638 -637 -636 -687 -686 837 0
-392 -835 836 0
835 -833 0
835 -834 0
835 -337 0
835 -358 0
835 -359 0
835 -360 0
835 -361 0
-381 -771 834 0
-832 -712 833 0
832 -383 0
832 -384 0
832 -333 0
832 -334 0
832 -335 0
7 5 4 6 2 1 -697 -696 -830 831 0
830 -819 0
830 -829 0
9 24 21 16 -693 -692 -691 -690 -689 -688 -735 -734 -733 -732 -727 -828 -824 829 0
828 -827 0
828 -665 0
-725 -724 -723 -826 -825 827 0
826 -731 0
826 -421 0
826 -450 0
826 -451 0
826 -452 0
826 -453 0
825 -820 0
825 -515 0
825 -450 0
825 -451 0
825 -452 0
825 -453 0
824 -801 0
824 -823 0
-730 -729 -728 -822 -821 823 0
822 -726 0
822 -556 0
822 -450 0
822 -451 0
822 -452 0
822 -453 0
821 -820 0
821 -449 0
821 -450 0
821 -451 0
821 -452 0
821 -453 0
-735 -734 -733 820 0
-392 -818 819 0
818 -813 0
818 -817 0
818 -703 0
818 -708 0
818 -709 0
818 -710 0
818 -711 0
-362 -816 817 0
816 -814 0
816 -815 0
816 -699 0
816 -700 0
816 -701 0
-150 -149 -148 -147 -118 -707 815 0
-150 -149 -148 -147 -212 -809 814 0
-812 -771 813 0
812 -810 0
812 -811 0
812 -704 0
812 -705 0
812 -706 0
-150 -149 -148 -147 -253 -702 811 0
-150 -149 -148 -147 -146 -809 810 0
809 -709 0
809 -710 0
809 -711 0
7 5 4 8 2 1 -697 -696 -807 808 0
807 -777 0
807 -806 0
9 24 21 16 -693 -692 -691 -690 -689 -688 -805 -800 -795 -794 806 0
805 -801 0
805 -804 0
-575 -803 -574 -557 -802 804 0
803 -797 0
803 -573 0
803 -450 0
803 -451 0
803 -452 0
803 -453 0
802 -517 0
802 -556 0
802 -450 0
802 -451 0
802 -452 0
802 -453 0
-669 -668 -667 -744 -743 801 0
800 -799 0
800 -665 0
-516 -499 -454 -798 -796 799 0
798 -476 0
798 -797 0
798 -450 0
798 -451 0
798 -452 0
798 -453 0
-596 -595 -594 797 0
796 -421 0
796 -576 0
796 -450 0
796 -451 0
796 -452 0
796 -453 0
795 -597 0
795 -736 0
794 -793 0
794 -450 0
794 -451 0
794 -452 0
794 -453 0
-792 -787 -782 793 0
792 -440 0
792 -441 0
792 -612 0
792 -613 0
792 -788 0
792 -789 0
792 -790 0
792 -791 0
792 -81 0
792 -77 0
792 -63 0
792 -62 0
792 -61 0
792 -60 0
792 -57 0
-27 16 791 0
-16 -68 790 0
16 -65 789 0
-16 -30 788 0
787 -605 0
787 -431 0
787 -783 0
787 -784 0
787 -785 0
787 -786 0
787 -610 0
787 -438 0
787 -80 0
787 -74 0
787 -50 0
787 -49 0
787 -48 0
787 -47 0
787 -44 0
-16 -28 786 0
-16 -55 785 0
16 -52 784 0
-26 16 783 0
782 -422 0
782 -598 0
782 -425 0
782 -778 0
782 -779 0
782 -780 0
782 -781 0
782 -602 0
782 -79 0
782 -71 0
782 -37 0
782 -36 0
782 -35 0
782 -34 0
782 -31 0
-39 16 781 0
-16 -42 780 0
-16 -29 779 0
-25 16 778 0
-392 -776 777 0
776 -764 0
776 -765 0
776 -770 0
776 -775 0
-774 -771 775 0
774 -772 0
774 -254 0
774 -271 0
774 -773 0
774 -272 0
-150 -149 -148 -147 -270 -767 773 0
-150 -149 -148 -147 -253 -214 772 0
771 -719 0
771 -720 0
771 -364 0
771 -365 0
771 -366 0
-362 -769 770 0
769 -766 0
769 -768 0
769 -151 0
769 -196 0
769 -213 0
-150 -149 -148 -147 -767 -173 768 0
767 -291 0
767 -292 0
767 -293 0
-150 -149 -148 -147 -273 -118 766 0
-712 -294 765 0
-150 -149 -148 -147 -763 764 0
763 -752 0
763 -757 0
763 -762 0
61 81 63 62 60 57 77 -761 -760 -759 -758 -310 -309 -138 -137 762 0
761 27 0
761 -16 0
760 68 0
760 16 0
759 65 0
759 -16 0
758 30 0
758 16 0
50 49 48 74 47 80 44 -135 -307 -756 -755 -754 -753 -128 -302 757 0
756 28 0
756 16 0
755 55 0
755 16 0
754 52 0
754 -16 0
753 26 0
753 -16 0
31 35 37 36 34 79 71 -299 -751 -750 -749 -748 -122 -295 -119 752 0
751 39 0
751 -16 0
750 42 0
750 16 0
749 29 0
749 16 0
748 25 0
748 -16 0
7 4 6 8 2 1 -697 -696 -746 747 0
746 -722 0
746 -745 0
9 24 21 16 -693 -692 -691 -690 -689 -688 -669 -668 -667 -744 -743 -742 -737 745 0
744 -675 0
744 -635 0
744 -450 0
744 -451 0
744 -452 0
744 -453 0
743 -738 0
743 -619 0
743 -450 0
743 -451 0
743 -452 0
743 -453 0
742 -741 0
742 -665 0
-674 -673 -672 -740 -739 741 0
740 -670 0
740 -515 0
740 -450 0
740 -451 0
740 -452 0
740 -453 0
739 -738 0
739 -476 0
739 -450 0
739 -451 0
739 -452 0
739 -453 0
-679 -678 -677 738 0
737 -680 0
737 -736 0
-735 -734 -733 -732 -727 736 0
735 -619 0
735 -450 0
735 -451 0
735 -452 0
735 -453 0
734 -656 0
734 -573 0
734 -450 0
734 -451 0
734 -452 0
734 -453 0
733 -476 0
733 -635 0
733 -450 0
733 -451 0
733 -452 0
733 -453 0
732 -731 0
732 -656 0
732 -450 0
732 -451 0
732 -452 0
732 -453 0
-730 -729 -728 731 0
730 -573 0
730 -450 0
730 -451 0
730 -452 0
730 -453 0
729 -476 0
729 -556 0
729 -450 0
729 -451 0
729 -452 0
729 -453 0
728 -619 0
728 -449 0
728 -450 0
728 -451 0
728 -452 0
728 -453 0
727 -726 0
727 -635 0
727 -450 0
727 -451 0
727 -452 0
727 -453 0
-725 -724 -723 726 0
725 -476 0
725 -450 0
725 -451 0
725 -452 0
725 -453 0
724 -421 0
724 -573 0
724 -450 0
724 -451 0
724 -452 0
724 -453 0
723 -515 0
723 -619 0
723 -450 0
723 -451 0
723 -452 0
723 -453 0
-392 -721 722 0
721 -713 0
721 -718 0
721 -719 0
721 -720 0
721 -364 0
721 -365 0
721 -366 0
-150 -149 -148 -147 -332 -372 720 0
-150 -149 -148 -147 -316 -714 719 0
-362 -717 718 0
717 -715 0
717 -716 0
717 -369 0
717 -370 0
717 -371 0
-150 -149 -148 -147 -212 -367 716 0
-150 -149 -148 -147 -173 -714 715 0
714 -374 0
714 -375 0
714 -376 0
-712 -377 713 0
712 -703 0
712 -708 0
712 -709 0
712 -710 0
712 -711 0
-150 -149 -148 -147 -316 711 0
-150 -149 -148 -147 -270 -353 710 0
-150 -149 -148 -147 -332 -173 709 0
-150 -149 -148 -147 -353 -707 708 0
707 -704 0
707 -705 0
707 -706 0
-150 -149 -148 -147 -270 706 0
-150 -149 -148 -147 -253 -173 705 0
-150 -149 -148 -147 -146 -316 704 0
-150 -149 -148 -147 -332 -702 703 0
702 -699 0
702 -700 0
702 -701 0
-150 -149 -148 -147 -173 701 0
-150 -149 -148 -147 -270 -118 700 0
-150 -149 -148 -147 -316 -212 699 0
5 6 8 3 2 1 -697 -696 -695 698 0
697 -7 0
697 -3 0
697 -2 0
697 -1 0
696 -8 0
696 -6 0
696 -5 0
696 -4 0
695 -393 0
695 -694 0
9 24 21 16 -693 -692 -691 -690 -689 -688 -638 -637 -636 -687 -686 -685 -666 694 0
693 14 0
693 15 0
692 17 0
692 18 0
691 10 0
691 11 0
690 19 0
690 20 0
689 22 0
689 23 0
688 12 0
688 13 0
687 -592 0
687 -660 0
687 -450 0
687 -451 0
687 -452 0
687 -453 0
686 -681 0
686 -498 0
686 -450 0
686 -451 0
686 -452 0
686 -453 0
685 -680 0
685 -684 0
-659 -658 -657 -683 -682 684 0
683 -639 0
683 -573 0
683 -450 0
683 -451 0
683 -452 0
683 -453 0
682 -681 0
682 -449 0
682 -450 0
682 -451 0
682 -452 0
682 -453 0
-664 -663 -662 681 0
-679 -678 -677 -676 -671 680 0
679 -592 0
679 -450 0
679 -451 0
679 -452 0
679 -453 0
678 -656 0
678 -498 0
678 -450 0
678 -451 0
678 -452 0
678 -453 0
677 -421 0
677 -539 0
677 -450 0
677 -451 0
677 -452 0
677 -453 0
676 -675 0
676 -539 0
676 -450 0
676 -451 0
676 -452 0
676 -453 0
-674 -673 -672 675 0
674 -421 0
674 -450 0
674 -451 0
674 -452 0
674 -453 0
673 -476 0
673 -592 0
673 -450 0
673 -451 0
673 -452 0
673 -453 0
672 -515 0
672 -656 0
672 -450 0
672 -451 0
672 -452 0
672 -453 0
671 -670 0
671 -498 0
671 -450 0
671 -451 0
671 -452 0
671 -453 0
-669 -668 -667 670 0
669 -656 0
669 -450 0
669 -451 0
669 -452 0
669 -453 0
668 -619 0
668 -592 0
668 -450 0
668 -451 0
668 -452 0
668 -453 0
667 -421 0
667 -635 0
667 -450 0
667 -451 0
667 -452 0
667 -453 0
666 -597 0
666 -665 0
-664 -663 -662 -661 -640 665 0
664 -635 0
664 -450 0
664 -451 0
664 -452 0
664 -453 0
663 -656 0
663 -556 0
663 -450 0
663 -451 0
663 -452 0
663 -453 0
662 -619 0
662 -539 0
662 -450 0
662 -451 0
662 -452 0
662 -453 0
661 -656 0
661 -660 0
661 -450 0
661 -451 0
661 -452 0
661 -453 0
-659 -658 -657 660 0
659 -556 0
659 -450 0
659 -451 0
659 -452 0
659 -453 0
658 -539 0
658 -573 0
658 -450 0
658 -451 0
658 -452 0
658 -453 0
657 -449 0
657 -635 0
657 -450 0
657 -451 0
657 -452 0
657 -453 0
-655 -650 -645 656 0
655 -412 0
655 -612 0
655 -613 0
655 -413 0
655 -651 0
655 -652 0
655 -653 0
655 -654 0
655 -81 0
655 -78 0
655 -77 0
655 -76 0
655 -63 0
655 -61 0
655 -60 0
-17 -30 654 0
-27 17 653 0
-18 -68 652 0
18 -65 651 0
650 -605 0
650 -403 0
650 -404 0
650 -646 0
650 -647 0
650 -648 0
650 -610 0
650 -649 0
650 -80 0
650 -75 0
650 -74 0
650 -73 0
650 -50 0
650 -48 0
650 -47 0
-17 -28 649 0
-26 17 648 0
-18 -55 647 0
18 -52 646 0
645 -394 0
645 -395 0
645 -598 0
645 -641 0
645 -642 0
645 -643 0
645 -644 0
645 -602 0
645 -79 0
645 -72 0
645 -71 0
645 -70 0
645 -37 0
645 -35 0
645 -34 0
-17 -29 644 0
-25 17 643 0
-18 -42 642 0
-39 18 641 0
640 -619 0
640 -639 0
640 -450 0
640 -451 0
640 -452 0
640 -453 0
-638 -637 -636 639 0
638 -539 0
638 -450 0
638 -451 0
638 -452 0
638 -453 0
637 -592 0
637 -556 0
637 -450 0
637 -451 0
637 -452 0
637 -453 0
636 -498 0
636 -635 0
636 -450 0
636 -451 0
636 -452 0
636 -453 0
-634 -629 -624 635 0
634 -612 0
634 -613 0
634 -630 0
634 -631 0
634 -632 0
634 -536 0
634 -537 0
634 -633 0
634 -87 0
634 -81 0
634 -77 0
634 -76 0
634 -63 0
634 -62 0
634 -60 0
-27 19 633 0
-20 -68 632 0
20 -65 631 0
-19 -30 630 0
629 -605 0
629 -625 0
629 -626 0
629 -627 0
629 -529 0
629 -628 0
629 -610 0
629 -530 0
629 -86 0
629 -80 0
629 -74 0
629 -73 0
629 -50 0
629 -49 0
629 -47 0
-26 19 628 0
-20 -55 627 0
20 -52 626 0
-19 -28 625 0
624 -598 0
624 -620 0
624 -621 0
624 -522 0
624 -523 0
624 -622 0
624 -623 0
624 -602 0
624 -85 0
624 -79 0
624 -71 0
624 -70 0
624 -37 0
624 -36 0
624 -34 0
-39 20 623 0
-25 19 622 0
-20 -42 621 0
-19 -29 620 0
-618 -611 -604 619 0
618 -612 0
618 -613 0
618 -471 0
618 -472 0
618 -614 0
618 -615 0
618 -616 0
618 -617 0
618 -84 0
618 -81 0
618 -76 0
618 -62 0
618 -61 0
618 -60 0
618 -59 0
-10 -68 617 0
-11 -30 616 0
-27 11 615 0
10 -65 614 0
-16 -67 613 0
16 -64 612 0
611 -605 0
611 -464 0
611 -606 0
611 -607 0
611 -608 0
611 -609 0
611 -610 0
611 -466 0
611 -83 0
611 -80 0
611 -73 0
611 -49 0
611 -48 0
611 -47 0
611 -46 0
-16 -54 610 0
-26 11 609 0
-11 -28 608 0
-10 -55 607 0
10 -52 606 0
16 -51 605 0
604 -598 0
604 -599 0
604 -458 0
604 -459 0
604 -600 0
604 -601 0
604 -602 0
604 -603 0
604 -82 0
604 -79 0
604 -70 0
604 -36 0
604 -35 0
604 -34 0
604 -33 0
-11 -29 603 0
-16 -41 602 0
-10 -42 601 0
-39 10 600 0
-25 11 599 0
-38 16 598 0
-596 -595 -594 -593 -540 597 0
596 -498 0
596 -450 0
596 -451 0
596 -452 0
596 -453 0
595 -592 0
595 -449 0
595 -450 0
595 -451 0
595 -452 0
595 -453 0
594 -515 0
594 -539 0
594 -450 0
594 -451 0
594 -452 0
594 -453 0
593 -576 0
593 -592 0
593 -450 0
593 -451 0
593 -452 0
593 -453 0
-591 -586 -581 592 0
591 -412 0
591 -413 0
591 -587 0
591 -492 0
591 -588 0
591 -589 0
591 -495 0
591 -590 0
591 -77 0
591 -76 0
591 -63 0
591 -62 0
591 -61 0
591 -60 0
591 -58 0
-12 -30 590 0
-13 -68 589 0
13 -65 588 0
-27 12 587 0
586 -403 0
586 -404 0
586 -485 0
586 -582 0
586 -583 0
586 -584 0
586 -585 0
586 -489 0
586 -74 0
586 -73 0
586 -50 0
586 -49 0
586 -48 0
586 -47 0
586 -45 0
-12 -28 585 0
-26 12 584 0
-13 -55 583 0
13 -52 582 0
581 -394 0
581 -395 0
581 -577 0
581 -477 0
581 -578 0
581 -579 0
581 -580 0
581 -481 0
581 -71 0
581 -70 0
581 -37 0
581 -36 0
581 -35 0
581 -34 0
581 -32 0
-12 -29 580 0
-13 -42 579 0
-39 13 578 0
-25 12 577 0
-575 -574 -557 576 0
575 -449 0
575 -450 0
575 -451 0
575 -452 0
575 -453 0
574 -498 0
574 -573 0
574 -450 0
574 -451 0
574 -452 0
574 -453 0
-572 -567 -562 573 0
572 -442 0
572 -471 0
572 -472 0
572 -568 0
572 -569 0
572 -570 0
572 -447 0
572 -571 0
572 -81 0
572 -76 0
572 -63 0
572 -62 0
572 -61 0
572 -60 0
572 -59 0
-12 -68 571 0
12 -65 570 0
-13 -30 569 0
-27 13 568 0
567 -432 0
567 -563 0
567 -464 0
567 -564 0
567 -565 0
567 -436 0
567 -566 0
567 -466 0
567 -80 0
567 -73 0
567 -50 0
567 -49 0
567 -48 0
567 -47 0
567 -46 0
-12 -55 566 0
-13 -28 565 0
-26 13 564 0
12 -52 563 0
562 -423 0
562 -424 0
562 -458 0
562 -459 0
562 -558 0
562 -559 0
562 -560 0
562 -561 0
562 -79 0
562 -70 0
562 -37 0
562 -36 0
562 -35 0
562 -34 0
562 -33 0
-39 12 561 0
-12 -42 560 0
-13 -29 559 0
-25 13 558 0
557 -515 0
557 -556 0
557 -450 0
557 -451 0
557 -452 0
557 -453 0
-555 -550 -545 556 0
555 -442 0
555 -551 0
555 -552 0
555 -536 0
555 -537 0
555 -447 0
555 -87 0
555 -553 0
555 -554 0
555 -81 0
555 -78 0
555 -77 0
555 -76 0
555 -63 0
555 -60 0
-22 -30 554 0
-23 -68 553 0
-27 22 552 0
23 -65 551 0
550 -432 0
550 -546 0
550 -547 0
550 -529 0
550 -436 0
550 -548 0
550 -549 0
550 -530 0
550 -86 0
550 -80 0
550 -75 0
550 -74 0
550 -73 0
550 -50 0
550 -47 0
-22 -28 549 0
-23 -55 548 0
-26 22 547 0
23 -52 546 0
545 -423 0
545 -424 0
545 -541 0
545 -542 0
545 -543 0
545 -522 0
545 -544 0
545 -523 0
545 -85 0
545 -79 0
545 -72 0
545 -71 0
545 -70 0
545 -37 0
545 -34 0
-25 22 544 0
-22 -29 543 0
-23 -42 542 0
-39 23 541 0
540 -517 0
540 -539 0
540 -450 0
540 -451 0
540 -452 0
540 -453 0
-538 -531 -524 539 0
538 -532 0
538 -533 0
538 -534 0
538 -535 0
538 -536 0
538 -537 0
538 -492 0
538 -495 0
538 -87 0
538 -77 0
538 -76 0
538 -63 0
538 -62 0
538 -60 0
538 -58 0
-24 -69 537 0
24 -66 536 0
-15 -68 535 0
15 -65 534 0
-14 -30 533 0
-27 14 532 0
531 -525 0
531 -526 0
531 -527 0
531 -528 0
531 -529 0
531 -485 0
531 -530 0
531 -489 0
531 -86 0
531 -74 0
531 -73 0
531 -50 0
531 -49 0
531 -47 0
531 -45 0
-24 -56 530 0
24 -53 529 0
-15 -55 528 0
15 -52 527 0
-14 -28 526 0
-26 14 525 0
524 -518 0
524 -519 0
524 -520 0
524 -521 0
524 -522 0
524 -477 0
524 -523 0
524 -481 0
524 -85 0
524 -71 0
524 -70 0
524 -37 0
524 -36 0
524 -34 0
524 -32 0
-24 -43 523 0
24 -40 522 0
-15 -42 521 0
-39 15 520 0
-14 -29 519 0
-25 14 518 0
-516 -499 -454 517 0
516 -515 0
516 -450 0
516 -451 0
516 -452 0
516 -453 0
-514 -509 -504 515 0
514 -440 0
514 -441 0
514 -510 0
514 -511 0
514 -417 0
514 -512 0
514 -90 0
514 -418 0
514 -81 0
514 -77 0
514 -76 0
514 -63 0
514 -62 0
514 -61 0
514 -513 0
-20 -30 513 0
19 -65 512 0
-27 20 511 0
-19 -68 510 0
509 -431 0
509 -505 0
509 -506 0
509 -507 0
509 -408 0
509 -409 0
509 -438 0
509 -89 0
509 -80 0
509 -74 0
509 -73 0
509 -50 0
509 -49 0
509 -48 0
509 -508 0
-20 -28 508 0
-26 20 507 0
-19 -55 506 0
19 -52 505 0
504 -422 0
504 -425 0
504 -500 0
504 -501 0
504 -399 0
504 -400 0
504 -502 0
504 -503 0
504 -88 0
504 -79 0
504 -71 0
504 -70 0
504 -37 0
504 -36 0
504 -35 0
-25 20 503 0
-19 -42 502 0
-20 -29 501 0
-39 19 500 0
499 -476 0
499 -498 0
499 -450 0
499 -451 0
499 -452 0
499 -453 0
-497 -490 -483 498 0
497 -440 0
497 -441 0
497 -491 0
497 -492 0
497 -493 0
497 -494 0
497 -495 0
497 -496 0
497 -78 0
497 -77 0
497 -76 0
497 -63 0
497 -61 0
497 -60 0
497 -58 0
-11 -68 496 0
-9 -67 495 0
-10 -30 494 0
-27 10 493 0
9 -64 492 0
11 -65 491 0
490 -431 0
490 -484 0
490 -485 0
490 -486 0
490 -487 0
490 -438 0
490 -488 0
490 -489 0
490 -75 0
490 -74 0
490 -73 0
490 -50 0
490 -48 0
490 -47 0
490 -45 0
-9 -54 489 0
-11 -55 488 0
-26 10 487 0
-10 -28 486 0
9 -51 485 0
11 -52 484 0
483 -422 0
483 -425 0
483 -477 0
483 -478 0
483 -479 0
483 -480 0
483 -481 0
483 -482 0
483 -72 0
483 -71 0
483 -70 0
483 -37 0
483 -35 0
483 -34 0
483 -32 0
-11 -42 482 0
-9 -41 481 0
-39 11 480 0
-10 -29 479 0
-25 10 478 0
-38 9 477 0
-475 -468 -461 476 0
475 -469 0
475 -470 0
475 -417 0
475 -471 0
475 -472 0
475 -473 0
475 -90 0
475 -418 0
475 -81 0
475 -76 0
475 -63 0
475 -62 0
475 -61 0
475 -59 0
475 -474 0
-15 -30 474 0
-14 -68 473 0
-9 -69 472 0
9 -66 471 0
-27 15 470 0
14 -65 469 0
468 -462 0
468 -463 0
468 -408 0
468 -409 0
468 -464 0
468 -465 0
468 -89 0
468 -466 0
468 -80 0
468 -73 0
468 -50 0
468 -49 0
468 -48 0
468 -46 0
468 -467 0
-15 -28 467 0
-9 -56 466 0
-14 -55 465 0
9 -53 464 0
-26 15 463 0
14 -52 462 0
461 -455 0
461 -456 0
461 -457 0
461 -399 0
461 -400 0
461 -458 0
461 -459 0
461 -460 0
461 -88 0
461 -79 0
461 -70 0
461 -37 0
461 -36 0
461 -35 0
461 -33 0
-25 15 460 0
-9 -43 459 0
9 -40 458 0
-15 -29 457 0
-14 -42 456 0
-39 14 455 0
454 -421 0
454 -449 0
454 -450 0
454 -451 0
454 -452 0
454 -453 0
-27 26 453 0
-29 28 452 0
-26 25 451 0
-28 30 450 0
-448 -439 -430 449 0
448 -440 0
448 -441 0
448 -442 0
448 -443 0
448 -444 0
448 -445 0
448 -446 0
448 -447 0
448 -84 0
448 -81 0
448 -77 0
448 -76 0
448 -62 0
448 -61 0
448 -60 0
-21 -67 447 0
-17 -68 446 0
17 -65 445 0
-18 -30 444 0
-27 18 443 0
21 -64 442 0
-16 -69 441 0
16 -66 440 0
439 -431 0
439 -432 0
439 -433 0
439 -434 0
439 -435 0
439 -436 0
439 -437 0
439 -438 0
439 -83 0
439 -80 0
439 -74 0
439 -73 0
439 -49 0
439 -48 0
439 -47 0
-16 -56 438 0
-18 -28 437 0
-21 -54 436 0
-17 -55 435 0
17 -52 434 0
-26 18 433 0
21 -51 432 0
16 -53 431 0
430 -422 0
430 -423 0
430 -424 0
430 -425 0
430 -426 0
430 -427 0
430 -428 0
430 -429 0
430 -82 0
430 -79 0
430 -71 0
430 -70 0
430 -36 0
430 -35 0
430 -34 0
-25 18 429 0
-18 -29 428 0
-17 -42 427 0
-39 17 426 0
-16 -43 425 0
-21 -41 424 0
-38 21 423 0
16 -40 422 0
-420 -411 -402 421 0
420 -412 0
420 -413 0
420 -414 0
420 -415 0
420 -416 0
420 -417 0
420 -90 0
420 -418 0
420 -419 0
420 -84 0
420 -81 0
420 -77 0
420 -76 0
420 -62 0
420 -61 0
-22 -68 419 0
-24 -67 418 0
24 -64 417 0
22 -65 416 0
-23 -30 415 0
-27 23 414 0
-21 -69 413 0
21 -66 412 0
411 -403 0
411 -404 0
411 -405 0
411 -406 0
411 -407 0
411 -408 0
411 -409 0
411 -410 0
411 -89 0
411 -83 0
411 -80 0
411 -74 0
411 -73 0
411 -49 0
411 -48 0
-22 -55 410 0
-24 -54 409 0
24 -51 408 0
22 -52 407 0
-23 -28 406 0
-26 23 405 0
-21 -56 404 0
21 -53 403 0
402 -394 0
402 -395 0
402 -396 0
402 -397 0
402 -398 0
402 -399 0
402 -400 0
402 -401 0
402 -88 0
402 -82 0
402 -79 0
402 -71 0
402 -70 0
402 -36 0
402 -35 0
-22 -42 401 0
-24 -41 400 0
-38 24 399 0
-39 22 398 0
-23 -29 397 0
-25 23 396 0
-21 -43 395 0
21 -40 394 0
-392 -385 393 0
392 -386 0
392 -387 0
392 -388 0
392 -389 0
392 -390 0
392 -391 0
392 -24 0
392 -21 0
392 -16 0
392 -9 0
-14 -15 391 0
-17 -18 390 0
-10 -11 389 0
-22 -23 388 0
-19 -20 387 0
-12 -13 386 0
385 -363 0
385 -382 0
385 -383 0
385 -384 0
385 -333 0
385 -334 0
385 -335 0
-150 -149 -148 -147 -357 -289 384 0
-150 -149 -148 -147 -195 -378 383 0
-381 -377 382 0
381 -379 0
381 -380 0
381 -354 0
381 -355 0
381 -356 0
-150 -149 -148 -147 -270 -336 380 0
-150 -149 -148 -147 -146 -378 379 0
378 -359 0
378 -360 0
378 -361 0
377 -368 0
377 -373 0
377 -374 0
377 -375 0
377 -376 0
-150 -149 -148 -147 -289 376 0
-150 -149 -148 -147 -195 -353 375 0
-150 -149 -148 -147 -236 -118 374 0
-150 -149 -148 -147 -236 -372 373 0
372 -369 0
372 -370 0
372 -371 0
-150 -149 -148 -147 -118 371 0
-150 -149 -148 -147 -289 -173 370 0
-150 -149 -148 -147 -353 -212 369 0
-150 -149 -148 -147 -195 -367 368 0
367 -364 0
367 -365 0
367 -366 0
-150 -149 -148 -147 -353 366 0
-150 -149 -148 -147 -289 -316 365 0
-150 -149 -148 -147 -332 -118 364 0
-362 -294 363 0
362 -337 0
362 -358 0
362 -359 0
362 -360 0
362 -361 0
-150 -149 -148 -147 -332 361 0
-150 -149 -148 -147 -253 -353 360 0
-150 -149 -148 -147 -236 -316 359 0
-150 -149 -148 -147 -357 -353 358 0
357 -354 0
357 -355 0
357 -356 0
-150 -149 -148 -147 -253 356 0
-150 -149 -148 -147 -270 -236 355 0
-150 -149 -148 -147 -332 -146 354 0
353 -342 0
353 -347 0
353 -352 0
61 76 81 63 60 78 77 -351 -350 -349 -348 -110 -310 -309 -109 352 0
351 30 0
351 17 0
350 27 0
350 -17 0
349 68 0
349 18 0
348 65 0
348 -18 0
50 48 75 74 47 73 80 -346 -307 -345 -344 -343 -101 -100 -302 347 0
346 28 0
346 17 0
345 26 0
345 -17 0
344 55 0
344 18 0
343 52 0
343 -18 0
35 37 34 79 72 71 70 -299 -341 -340 -339 -338 -295 -92 -91 342 0
341 29 0
341 17 0
340 25 0
340 -17 0
339 42 0
339 18 0
338 39 0
338 -18 0
-150 -149 -148 -147 -336 -316 337 0
336 -333 0
336 -334 0
336 -335 0
-150 -149 -148 -147 -236 335 0
-150 -149 -148 -147 -253 -289 334 0
-150 -149 -148 -147 -332 -195 333 0
332 -321 0
332 -326 0
332 -331 0
76 81 63 62 60 77 87 -330 -234 -233 -329 -328 -327 -310 -309 331 0
330 27 0
330 -19 0
329 68 0
329 20 0
328 65 0
328 -20 0
327 30 0
327 19 0
50 49 74 47 73 86 80 -227 -307 -325 -226 -324 -323 -322 -302 326 0
325 26 0
325 -19 0
324 55 0
324 20 0
323 52 0
323 -20 0
322 28 0
322 19 0
37 36 34 79 71 70 85 -299 -320 -319 -220 -219 -318 -317 -295 321 0
320 39 0
320 -20 0
319 25 0
319 -19 0
318 42 0
318 20 0
317 29 0
317 19 0
316 -301 0
316 -308 0
316 -315 0
61 76 81 62 60 59 84 -314 -313 -312 -311 -169 -168 -310 -309 315 0
314 68 0
314 10 0
313 30 0
313 11 0
312 27 0
312 -11 0
311 65 0
311 -10 0
310 67 0
310 16 0
309 64 0
309 -16 0
49 48 46 47 73 83 80 -163 -307 -306 -305 -304 -303 -161 -302 308 0
307 54 0
307 16 0
306 26 0
306 -11 0
305 28 0
305 11 0
304 55 0
304 10 0
303 52 0
303 -10 0
302 51 0
302 -16 0
33 35 36 34 79 70 82 -300 -299 -298 -297 -156 -155 -296 -295 301 0
300 29 0
300 11 0
299 41 0
299 16 0
298 42 0
298 10 0
297 39 0
297 -10 0
296 25 0
296 -11 0
295 38 0
295 -16 0
294 -237 0
294 -290 0
294 -291 0
294 -292 0
294 -293 0
-150 -149 -148 -147 -195 293 0
-150 -149 -148 -147 -146 -289 292 0
-150 -149 -148 -147 -236 -212 291 0
-150 -149 -148 -147 -289 -273 290 0
289 -278 0
289 -283 0
289 -288 0
61 76 63 62 60 58 77 -287 -192 -286 -285 -189 -284 -110 -109 288 0
287 30 0
287 12 0
286 68 0
286 13 0
285 65 0
285 -13 0
284 27 0
284 -12 0
50 49 48 45 74 47 73 -186 -282 -281 -280 -279 -182 -101 -100 283 0
282 28 0
282 12 0
281 26 0
281 -12 0
280 55 0
280 13 0
279 52 0
279 -13 0
32 35 37 36 34 71 70 -178 -277 -276 -275 -174 -274 -92 -91 278 0
277 29 0
277 12 0
276 42 0
276 13 0
275 39 0
275 -13 0
274 25 0
274 -12 0
273 -254 0
273 -271 0
273 -272 0
-150 -149 -148 -147 -146 272 0
-150 -149 -148 -147 -270 -195 271 0
270 -259 0
270 -264 0
270 -269 0
61 76 81 63 62 60 59 -268 -144 -267 -266 -265 -169 -168 -139 269 0
268 68 0
268 12 0
267 65 0
267 -12 0
266 30 0
266 13 0
265 27 0
265 -13 0
50 49 48 46 47 73 80 -163 -263 -133 -262 -261 -161 -260 -129 264 0
263 55 0
263 12 0
262 28 0
262 13 0
261 26 0
261 -13 0
260 52 0
260 -12 0
33 35 37 36 34 79 70 -258 -257 -256 -255 -156 -155 -121 -120 259 0
258 39 0
258 -12 0
257 42 0
257 12 0
256 29 0
256 13 0
255 25 0
255 -13 0
-150 -149 -148 -147 -253 -212 254 0
253 -242 0
253 -247 0
253 -252 0
76 81 63 60 78 77 -251 -250 87 -144 -234 -233 -249 -248 -139 252 0
251 30 0
251 22 0
250 68 0
250 23 0
249 27 0
249 -22 0
248 65 0
248 -23 0
50 75 74 47 73 86 80 -227 -246 -245 -133 -226 -244 -243 -129 247 0
246 28 0
246 22 0
245 55 0
245 23 0
244 26 0
244 -22 0
243 52 0
243 -23 0
37 34 79 72 71 70 85 -220 -241 -219 -240 -239 -238 -121 -120 242 0
241 25 0
241 -22 0
240 29 0
240 22 0
239 42 0
239 23 0
238 39 0
238 -23 0
-150 -149 -148 -147 -236 -214 237 0
236 -221 0
236 -228 0
236 -235 0
76 63 62 60 58 77 87 -192 -189 -234 -233 -232 -231 -230 -229 235 0
234 69 0
234 24 0
233 66 0
233 -24 0
232 68 0
232 15 0
231 65 0
231 -15 0
230 30 0
230 14 0
229 27 0
229 -14 0
50 49 45 74 47 73 86 -186 -227 -182 -226 -225 -224 -223 -222 228 0
227 56 0
227 24 0
226 53 0
226 -24 0
225 55 0
225 15 0
224 52 0
224 -15 0
223 28 0
223 14 0
222 26 0
222 -14 0
32 37 36 34 71 70 85 -178 -220 -174 -219 -218 -217 -216 -215 221 0
220 43 0
220 24 0
219 40 0
219 -24 0
218 42 0
218 15 0
217 39 0
217 -15 0
216 29 0
216 14 0
215 25 0
215 -14 0
214 -151 0
214 -196 0
214 -213 0
-150 -149 -148 -147 -212 213 0
212 -201 0
212 -206 0
212 -211 0
-210 61 76 81 63 62 77 -115 90 -209 -114 -208 -207 -138 -137 211 0
210 30 0
210 20 0
209 65 0
209 -19 0
208 27 0
208 -20 0
207 68 0
207 19 0
-205 50 49 48 74 73 80 89 -135 -106 -105 -204 -203 -202 -128 206 0
205 28 0
205 20 0
204 26 0
204 -20 0
203 55 0
203 19 0
202 52 0
202 -19 0
35 37 36 79 71 70 88 -200 -199 -97 -96 -198 -197 -122 -119 201 0
200 25 0
200 -20 0
199 42 0
199 19 0
198 29 0
198 20 0
197 39 0
197 -19 0
-150 -149 -148 -147 -195 -173 196 0
195 -180 0
195 -187 0
195 -194 0
61 76 63 60 58 78 77 -193 -192 -191 -190 -189 -188 -138 -137 194 0
193 68 0
193 11 0
192 67 0
192 9 0
191 30 0
191 10 0
190 27 0
190 -10 0
189 64 0
189 -9 0
188 65 0
188 -11 0
50 48 45 75 74 47 73 -186 -185 -135 -184 -183 -182 -181 -128 187 0
186 54 0
186 9 0
185 55 0
185 11 0
184 26 0
184 -10 0
183 28 0
183 10 0
182 51 0
182 -9 0
181 52 0
181 -11 0
32 35 37 34 72 71 70 -179 -178 -177 -176 -175 -174 -122 -119 180 0
179 42 0
179 11 0
178 41 0
178 9 0
177 39 0
177 -11 0
176 29 0
176 10 0
175 25 0
175 -10 0
174 38 0
174 -9 0
173 -158 0
173 -165 0
173 -172 0
-171 61 76 81 63 62 59 -115 90 -170 -169 -168 -114 -167 -166 172 0
171 30 0
171 15 0
170 68 0
170 14 0
169 69 0
169 9 0
168 66 0
168 -9 0
167 27 0
167 -15 0
166 65 0
166 -14 0
-164 50 49 48 46 73 80 -163 89 -162 -161 -106 -105 -160 -159 165 0
164 28 0
164 15 0
163 56 0
163 9 0
162 55 0
162 14 0
161 53 0
161 -9 0
160 26 0
160 -15 0
159 52 0
159 -14 0
33 35 37 36 79 70 88 -157 -156 -155 -97 -96 -154 -153 -152 158 0
157 25 0
157 -15 0
156 43 0
156 9 0
155 40 0
155 -9 0
154 29 0
154 15 0
153 42 0
153 14 0
152 39 0
152 -14 0
-150 -149 -148 -147 -146 -118 151 0
150 27 0
150 -26 0
149 29 0
149 -28 0
148 26 0
148 -25 0
147 28 0
147 -30 0
146 -127 0
146 -136 0
146 -145 0
61 76 81 62 60 77 84 -144 -143 -142 -141 -140 -139 -138 -137 145 0
144 67 0
144 21 0
143 68 0
143 17 0
142 65 0
142 -17 0
141 30 0
141 18 0
140 27 0
140 -18 0
139 64 0
139 -21 0
138 69 0
138 16 0
137 66 0
137 -16 0
49 48 74 47 73 83 80 -135 -134 -133 -132 -131 -130 -129 -128 136 0
135 56 0
135 16 0
134 28 0
134 18 0
133 54 0
133 21 0
132 55 0
132 17 0
131 52 0
131 -17 0
130 26 0
130 -18 0
129 51 0
129 -21 0
128 53 0
128 -16 0
35 36 34 79 71 70 82 -126 -125 -124 -123 -122 -121 -120 -119 127 0
126 25 0
126 -18 0
125 29 0
125 18 0
124 42 0
124 17 0
123 39 0
123 -17 0
122 43 0
122 16 0
121 41 0
121 21 0
120 38 0
120 -21 0
119 40 0
119 -16 0
118 -99 0
118 -108 0
118 -117 0
61 76 81 62 77 84 -116 -115 90 -114 -113 -112 -111 -110 -109 117 0
116 68 0
116 22 0
115 67 0
115 24 0
114 64 0
114 -24 0
113 65 0
113 -22 0
112 30 0
112 23 0
111 27 0
111 -23 0
110 69 0
110 21 0
109 66 0
109 -21 0
49 48 74 73 83 80 89 -107 -106 -105 -104 -103 -102 -101 -100 108 0
107 55 0
107 22 0
106 54 0
106 24 0
105 51 0
105 -24 0
104 52 0
104 -22 0
103 28 0
103 23 0
102 26 0
102 -23 0
101 56 0
101 21 0
100 53 0
100 -21 0
35 36 79 71 70 82 88 -98 -97 -96 -95 -94 -93 -92 -91 99 0
98 42 0
98 22 0
97 41 0
97 24 0
96 38 0
96 -24 0
95 39 0
95 -22 0
94 29 0
94 23 0
93 25 0
93 -23 0
92 43 0
92 21 0
91 40 0
91 -21 0
